90 4005
1 2 155
1 3 253
1 4 241
1 5 130
1 6 259
1 7 49
1 8 141
1 9 118
1 10 74
1 11 104
1 12 204
1 13 269
1 14 82
1 15 89
1 16 100
1 17 158
1 18 119
1 19 146
1 20 208
1 21 134
1 22 123
1 23 109
1 24 73
1 25 173
1 26 240
1 27 160
1 28 110
1 29 27
1 30 187
1 31 187
1 32 25
1 33 246
1 34 225
1 35 260
1 36 65
1 37 203
1 38 245
1 39 181
1 40 203
1 41 107
1 42 175
1 43 60
1 44 170
1 45 198
1 46 109
1 47 130
1 48 156
1 49 58
1 50 59
1 51 84
1 52 182
1 53 183
1 54 212
1 55 237
1 56 20
1 57 105
1 58 197
1 59 179
1 60 160
1 61 121
1 62 246
1 63 116
1 64 70
1 65 114
1 66 91
1 67 100
1 68 58
1 69 256
1 70 112
1 71 165
1 72 148
1 73 215
1 74 57
1 75 184
1 76 102
1 77 239
1 78 97
1 79 153
1 80 9
1 81 187
1 82 155
1 83 28
1 84 2
1 85 248
1 86 196
1 87 163
1 88 115
1 89 54
1 90 46
2 3 138
2 4 76
2 5 211
2 6 154
2 7 79
2 8 132
2 9 97
2 10 148
2 11 235
2 12 260
2 13 219
2 14 216
2 15 108
2 16 93
2 17 192
2 18 225
2 19 196
2 20 223
2 21 165
2 22 148
2 23 194
2 24 218
2 25 96
2 26 95
2 27 113
2 28 162
2 29 178
2 30 208
2 31 17
2 32 148
2 33 158
2 34 70
2 35 15
2 36 33
2 37 172
2 38 45
2 39 72
2 40 264
2 41 15
2 42 76
2 43 147
2 44 233
2 45 158
2 46 171
2 47 261
2 48 65
2 49 243
2 50 82
2 51 147
2 52 145
2 53 217
2 54 221
2 55 19
2 56 98
2 57 175
2 58 238
2 59 136
2 60 115
2 61 165
2 62 185
2 63 129
2 64 55
2 65 189
2 66 13
2 67 174
2 68 232
2 69 209
2 70 164
2 71 10
2 72 55
2 73 242
2 74 36
2 75 224
2 76 133
2 77 98
2 78 260
2 79 30
2 80 181
2 81 32
2 82 155
2 83 76
2 84 191
2 85 22
2 86 215
2 87 117
2 88 211
2 89 219
2 90 239
3 4 145
3 5 114
3 6 17
3 7 213
3 8 96
3 9 38
3 10 53
3 11 219
3 12 68
3 13 72
3 14 183
3 15 88
3 16 178
3 17 160
3 18 77
3 19 47
3 20 223
3 21 31
3 22 246
3 23 4
3 24 254
3 25 141
3 26 18
3 27 154
3 28 99
3 29 51
3 30 55
3 31 8
3 32 70
3 33 142
3 34 54
3 35 252
3 36 259
3 37 192
3 38 53
3 39 165
3 40 163
3 41 23
3 42 261
3 43 49
3 44 125
3 45 26
3 46 106
3 47 263
3 48 131
3 49 176
3 50 34
3 51 157
3 52 28
3 53 63
3 54 120
3 55 84
3 56 220
3 57 144
3 58 184
3 59 160
3 60 49
3 61 133
3 62 177
3 63 2
3 64 179
3 65 127
3 66 54
3 67 191
3 68 192
3 69 234
3 70 243
3 71 43
3 72 196
3 73 82
3 74 137
3 75 123
3 76 179
3 77 162
3 78 93
3 79 185
3 80 170
3 81 47
3 82 90
3 83 32
3 84 75
3 85 24
3 86 247
3 87 107
3 88 18
3 89 159
3 90 206
4 5 180
4 6 264
4 7 199
4 8 64
4 9 121
4 10 62
4 11 125
4 12 31
4 13 24
4 14 166
4 15 202
4 16 92
4 17 212
4 18 209
4 19 249
4 20 266
4 21 124
4 22 189
4 23 265
4 24 162
4 25 73
4 26 128
4 27 34
4 28 76
4 29 158
4 30 181
4 31 233
4 32 123
4 33 99
4 34 189
4 35 64
4 36 152
4 37 90
4 38 49
4 39 240
4 40 230
4 41 96
4 42 94
4 43 132
4 44 131
4 45 236
4 46 89
4 47 190
4 48 178
4 49 200
4 50 149
4 51 48
4 52 126
4 53 185
4 54 92
4 55 21
4 56 118
4 57 148
4 58 182
4 59 12
4 60 225
4 61 233
4 62 241
4 63 242
4 64 260
4 65 38
4 66 269
4 67 66
4 68 143
4 69 52
4 70 212
4 71 46
4 72 268
4 73 135
4 74 257
4 75 222
4 76 139
4 77 135
4 78 73
4 79 80
4 80 249
4 81 189
4 82 77
4 83 265
4 84 125
4 85 4
4 86 249
4 87 118
4 88 226
4 89 243
4 90 4
5 6 109
5 7 87
5 8 239
5 9 7
5 10 246
5 11 180
5 12 230
5 13 51
5 14 73
5 15 82
5 16 84
5 17 91
5 18 123
5 19 90
5 20 171
5 21 126
5 22 91
5 23 211
5 24 139
5 25 85
5 26 19
5 27 81
5 28 212
5 29 5
5 30 100
5 31 105
5 32 233
5 33 233
5 34 185
5 35 36
5 36 144
5 37 148
5 38 2
5 39 254
5 40 60
5 41 199
5 42 214
5 43 127
5 44 137
5 45 214
5 46 139
5 47 45
5 48 28
5 49 17
5 50 114
5 51 166
5 52 214
5 53 13
5 54 19
5 55 103
5 56 210
5 57 192
5 58 262
5 59 156
5 60 164
5 61 93
5 62 105
5 63 264
5 64 0
5 65 189
5 66 253
5 67 46
5 68 89
5 69 269
5 70 115
5 71 89
5 72 268
5 73 68
5 74 111
5 75 74
5 76 196
5 77 95
5 78 5
5 79 1
5 80 87
5 81 157
5 82 155
5 83 81
5 84 43
5 85 158
5 86 16
5 87 81
5 88 232
5 89 255
5 90 55
6 7 135
6 8 107
6 9 126
6 10 185
6 11 126
6 12 208
6 13 238
6 14 62
6 15 250
6 16 93
6 17 34
6 18 54
6 19 83
6 20 239
6 21 6
6 22 268
6 23 44
6 24 205
6 25 33
6 26 197
6 27 169
6 28 1
6 29 113
6 30 49
6 31 40
6 32 53
6 33 146
6 34 163
6 35 149
6 36 9
6 37 19
6 38 220
6 39 68
6 40 70
6 41 44
6 42 96
6 43 107
6 44 245
6 45 239
6 46 144
6 47 72
6 48 69
6 49 52
6 50 260
6 51 15
6 52 255
6 53 15
6 54 259
6 55 138
6 56 153
6 57 238
6 58 185
6 59 17
6 60 61
6 61 162
6 62 15
6 63 76
6 64 240
6 65 20
6 66 232
6 67 197
6 68 54
6 69 126
6 70 47
6 71 41
6 72 167
6 73 70
6 74 236
6 75 133
6 76 115
6 77 154
6 78 155
6 79 15
6 80 158
6 81 60
6 82 227
6 83 213
6 84 261
6 85 40
6 86 222
6 87 251
6 88 32
6 89 222
6 90 229
7 8 55
7 9 26
7 10 183
7 11 55
7 12 251
7 13 164
7 14 164
7 15 170
7 16 59
7 17 69
7 18 94
7 19 86
7 20 38
7 21 46
7 22 125
7 23 221
7 24 181
7 25 25
7 26 219
7 27 184
7 28 192
7 29 8
7 30 192
7 31 243
7 32 127
7 33 114
7 34 230
7 35 97
7 36 80
7 37 117
7 38 181
7 39 252
7 40 200
7 41 95
7 42 181
7 43 9
7 44 51
7 45 59
7 46 173
7 47 198
7 48 67
7 49 31
7 50 179
7 51 202
7 52 27
7 53 245
7 54 186
7 55 42
7 56 93
7 57 178
7 58 114
7 59 72
7 60 88
7 61 150
7 62 258
7 63 15
7 64 140
7 65 123
7 66 204
7 67 53
7 68 225
7 69 22
7 70 60
7 71 26
7 72 160
7 73 52
7 74 11
7 75 66
7 76 45
7 77 90
7 78 72
7 79 128
7 80 151
7 81 4
7 82 77
7 83 31
7 84 163
7 85 41
7 86 265
7 87 88
7 88 5
7 89 255
7 90 169
8 9 120
8 10 156
8 11 64
8 12 125
8 13 121
8 14 51
8 15 240
8 16 181
8 17 110
8 18 12
8 19 235
8 20 266
8 21 184
8 22 83
8 23 207
8 24 153
8 25 97
8 26 225
8 27 146
8 28 162
8 29 86
8 30 149
8 31 210
8 32 104
8 33 146
8 34 152
8 35 208
8 36 206
8 37 51
8 38 165
8 39 35
8 40 35
8 41 117
8 42 34
8 43 241
8 44 88
8 45 6
8 46 233
8 47 37
8 48 191
8 49 203
8 50 53
8 51 133
8 52 210
8 53 187
8 54 54
8 55 177
8 56 200
8 57 203
8 58 239
8 59 112
8 60 8
8 61 6
8 62 26
8 63 154
8 64 187
8 65 37
8 66 88
8 67 112
8 68 261
8 69 40
8 70 81
8 71 166
8 72 220
8 73 86
8 74 252
8 75 16
8 76 16
8 77 163
8 78 179
8 79 149
8 80 193
8 81 185
8 82 117
8 83 244
8 84 44
8 85 255
8 86 145
8 87 40
8 88 102
8 89 199
8 90 185
9 10 184
9 11 28
9 12 116
9 13 129
9 14 7
9 15 185
9 16 149
9 17 244
9 18 42
9 19 51
9 20 263
9 21 196
9 22 265
9 23 80
9 24 115
9 25 26
9 26 268
9 27 113
9 28 205
9 29 87
9 30 158
9 31 130
9 32 109
9 33 139
9 34 182
9 35 88
9 36 46
9 37 243
9 38 17
9 39 214
9 40 64
9 41 62
9 42 256
9 43 102
9 44 92
9 45 191
9 46 186
9 47 255
9 48 229
9 49 116
9 50 193
9 51 34
9 52 226
9 53 112
9 54 232
9 55 179
9 56 152
9 57 241
9 58 173
9 59 58
9 60 84
9 61 166
9 62 86
9 63 78
9 64 230
9 65 52
9 66 32
9 67 79
9 68 234
9 69 214
9 70 86
9 71 152
9 72 181
9 73 250
9 74 242
9 75 63
9 76 75
9 77 173
9 78 191
9 79 217
9 80 229
9 81 206
9 82 244
9 83 140
9 84 180
9 85 21
9 86 82
9 87 100
9 88 99
9 89 227
9 90 211
10 11 241
10 12 15
10 13 223
10 14 128
10 15 56
10 16 184
10 17 216
10 18 185
10 19 265
10 20 238
10 21 228
10 22 96
10 23 262
10 24 136
10 25 26
10 26 57
10 27 83
10 28 65
10 29 242
10 30 182
10 31 146
10 32 22
10 33 139
10 34 79
10 35 169
10 36 35
10 37 40
10 38 75
10 39 134
10 40 9
10 41 108
10 42 119
10 43 55
10 44 112
10 45 125
10 46 104
10 47 243
10 48 72
10 49 128
10 50 35
10 51 267
10 52 209
10 53 56
10 54 105
10 55 100
10 56 199
10 57 6
10 58 85
10 59 147
10 60 186
10 61 267
10 62 94
10 63 91
10 64 116
10 65 23
10 66 253
10 67 127
10 68 222
10 69 191
10 70 190
10 71 212
10 72 240
10 73 119
10 74 156
10 75 108
10 76 246
10 77 199
10 78 119
10 79 110
10 80 141
10 81 136
10 82 138
10 83 200
10 84 99
10 85 197
10 86 151
10 87 181
10 88 161
10 89 210
10 90 73
11 12 72
11 13 150
11 14 224
11 15 62
11 16 26
11 17 49
11 18 91
11 19 3
11 20 67
11 21 200
11 22 63
11 23 205
11 24 102
11 25 200
11 26 49
11 27 4
11 28 22
11 29 189
11 30 108
11 31 243
11 32 262
11 33 245
11 34 240
11 35 199
11 36 1
11 37 213
11 38 159
11 39 222
11 40 56
11 41 235
11 42 47
11 43 212
11 44 242
11 45 250
11 46 247
11 47 144
11 48 204
11 49 51
11 50 54
11 51 144
11 52 112
11 53 230
11 54 145
11 55 102
11 56 105
11 57 76
11 58 15
11 59 60
11 60 167
11 61 36
11 62 6
11 63 5
11 64 211
11 65 192
11 66 21
11 67 171
11 68 0
11 69 15
11 70 71
11 71 58
11 72 145
11 73 21
11 74 123
11 75 247
11 76 264
11 77 205
11 78 25
11 79 258
11 80 199
11 81 133
11 82 158
11 83 104
11 84 264
11 85 127
11 86 237
11 87 123
11 88 124
11 89 201
11 90 265
12 13 261
12 14 102
12 15 205
12 16 31
12 17 138
12 18 71
12 19 234
12 20 48
12 21 103
12 22 37
12 23 185
12 24 1
12 25 195
12 26 143
12 27 205
12 28 138
12 29 213
12 30 140
12 31 17
12 32 129
12 33 105
12 34 47
12 35 103
12 36 171
12 37 41
12 38 87
12 39 38
12 40 106
12 41 37
12 42 253
12 43 166
12 44 187
12 45 198
12 46 259
12 47 85
12 48 243
12 49 37
12 50 88
12 51 165
12 52 100
12 53 156
12 54 237
12 55 171
12 56 118
12 57 255
12 58 134
12 59 64
12 60 264
12 61 53
12 62 107
12 63 240
12 64 124
12 65 70
12 66 36
12 67 86
12 68 153
12 69 65
12 70 142
12 71 234
12 72 209
12 73 146
12 74 150
12 75 146
12 76 233
12 77 48
12 78 118
12 79 40
12 80 141
12 81 9
12 82 232
12 83 267
12 84 78
12 85 237
12 86 54
12 87 257
12 88 46
12 89 118
12 90 41
13 14 0
13 15 196
13 16 76
13 17 176
13 18 145
13 19 11
13 20 50
13 21 36
13 22 239
13 23 162
13 24 70
13 25 238
13 26 198
13 27 170
13 28 73
13 29 103
13 30 42
13 31 50
13 32 66
13 33 217
13 34 167
13 35 174
13 36 9
13 37 152
13 38 29
13 39 127
13 40 43
13 41 167
13 42 78
13 43 175
13 44 22
13 45 114
13 46 144
13 47 200
13 48 260
13 49 136
13 50 213
13 51 188
13 52 100
13 53 193
13 54 11
13 55 1
13 56 203
13 57 41
13 58 152
13 59 127
13 60 186
13 61 43
13 62 70
13 63 46
13 64 179
13 65 26
13 66 44
13 67 16
13 68 132
13 69 219
13 70 202
13 71 259
13 72 186
13 73 149
13 74 194
13 75 60
13 76 169
13 77 135
13 78 28
13 79 201
13 80 183
13 81 128
13 82 64
13 83 37
13 84 143
13 85 203
13 86 212
13 87 121
13 88 211
13 89 104
13 90 80
14 15 36
14 16 109
14 17 56
14 18 88
14 19 225
14 20 103
14 21 12
14 22 220
14 23 119
14 24 200
14 25 142
14 26 186
14 27 176
14 28 92
14 29 112
14 30 265
14 31 29
14 32 213
14 33 79
14 34 257
14 35 201
14 36 209
14 37 219
14 38 222
14 39 11
14 40 148
14 41 236
14 42 99
14 43 79
14 44 76
14 45 35
14 46 126
14 47 260
14 48 154
14 49 63
14 50 246
14 51 36
14 52 63
14 53 30
14 54 152
14 55 230
14 56 197
14 57 19
14 58 215
14 59 62
14 60 149
14 61 11
14 62 68
14 63 240
14 64 32
14 65 185
14 66 259
14 67 33
14 68 244
14 69 176
14 70 253
14 71 127
14 72 224
14 73 168
14 74 186
14 75 24
14 76 217
14 77 39
14 78 253
14 79 236
14 80 172
14 81 31
14 82 18
14 83 240
14 84 82
14 85 260
14 86 135
14 87 253
14 88 126
14 89 95
14 90 243
15 16 240
15 17 9
15 18 82
15 19 35
15 20 149
15 21 25
15 22 168
15 23 181
15 24 197
15 25 126
15 26 112
15 27 14
15 28 76
15 29 35
15 30 87
15 31 269
15 32 31
15 33 269
15 34 189
15 35 152
15 36 210
15 37 87
15 38 113
15 39 106
15 40 243
15 41 42
15 42 96
15 43 214
15 44 234
15 45 8
15 46 73
15 47 170
15 48 40
15 49 265
15 50 208
15 51 28
15 52 26
15 53 11
15 54 261
15 55 188
15 56 215
15 57 21
15 58 228
15 59 69
15 60 160
15 61 109
15 62 60
15 63 44
15 64 62
15 65 6
15 66 1
15 67 39
15 68 260
15 69 260
15 70 245
15 71 151
15 72 128
15 73 166
15 74 155
15 75 168
15 76 50
15 77 62
15 78 130
15 79 162
15 80 47
15 81 237
15 82 69
15 83 109
15 84 140
15 85 169
15 86 231
15 87 112
15 88 85
15 89 93
15 90 35
16 17 19
16 18 81
16 19 9
16 20 224
16 21 113
16 22 3
16 23 19
16 24 261
16 25 149
16 26 0
16 27 108
16 28 220
16 29 245
16 30 45
16 31 150
16 32 64
16 33 157
16 34 65
16 35 141
16 36 262
16 37 84
16 38 200
16 39 189
16 40 205
16 41 192
16 42 59
16 43 200
16 44 72
16 45 39
16 46 59
16 47 263
16 48 88
16 49 44
16 50 209
16 51 157
16 52 65
16 53 18
16 54 259
16 55 79
16 56 143
16 57 86
16 58 233
16 59 140
16 60 165
16 61 45
16 62 104
16 63 51
16 64 30
16 65 45
16 66 5
16 67 150
16 68 9
16 69 137
16 70 125
16 71 195
16 72 212
16 73 241
16 74 233
16 75 132
16 76 256
16 77 2
16 78 225
16 79 267
16 80 225
16 81 263
16 82 257
16 83 103
16 84 74
16 85 266
16 86 129
16 87 144
16 88 202
16 89 237
16 90 57
17 18 99
17 19 19
17 20 146
17 21 27
17 22 245
17 23 182
17 24 30
17 25 105
17 26 46
17 27 42
17 28 102
17 29 124
17 30 180
17 31 189
17 32 214
17 33 181
17 34 139
17 35 99
17 36 44
17 37 197
17 38 137
17 39 108
17 40 173
17 41 48
17 42 76
17 43 82
17 44 59
17 45 42
17 46 55
17 47 29
17 48 53
17 49 215
17 50 266
17 51 3
17 52 230
17 53 203
17 54 87
17 55 243
17 56 156
17 57 244
17 58 263
17 59 150
17 60 122
17 61 185
17 62 201
17 63 242
17 64 45
17 65 178
17 66 117
17 67 37
17 68 149
17 69 13
17 70 254
17 71 229
17 72 144
17 73 13
17 74 115
17 75 126
17 76 32
17 77 225
17 78 18
17 79 90
17 80 183
17 81 10
17 82 198
17 83 73
17 84 198
17 85 174
17 86 67
17 87 32
17 88 212
17 89 177
17 90 122
18 19 196
18 20 59
18 21 159
18 22 36
18 23 12
18 24 251
18 25 219
18 26 6
18 27 20
18 28 71
18 29 196
18 30 136
18 31 225
18 32 133
18 33 20
18 34 20
18 35 83
18 36 24
18 37 160
18 38 125
18 39 58
18 40 34
18 41 54
18 42 114
18 43 217
18 44 157
18 45 229
18 46 136
18 47 197
18 48 156
18 49 138
18 50 193
18 51 96
18 52 209
18 53 119
18 54 156
18 55 78
18 56 47
18 57 51
18 58 211
18 59 177
18 60 217
18 61 120
18 62 17
18 63 35
18 64 9
18 65 197
18 66 238
18 67 7
18 68 138
18 69 15
18 70 166
18 71 203
18 72 187
18 73 39
18 74 152
18 75 156
18 76 199
18 77 149
18 78 260
18 79 17
18 80 209
18 81 236
18 82 194
18 83 247
18 84 174
18 85 49
18 86 150
18 87 32
18 88 162
18 89 144
18 90 110
19 20 3
19 21 46
19 22 224
19 23 179
19 24 44
19 25 236
19 26 19
19 27 40
19 28 260
19 29 223
19 30 224
19 31 168
19 32 39
19 33 237
19 34 265
19 35 83
19 36 92
19 37 53
19 38 51
19 39 160
19 40 165
19 41 116
19 42 268
19 43 106
19 44 216
19 45 156
19 46 150
19 47 1
19 48 199
19 49 61
19 50 153
19 51 125
19 52 32
19 53 243
19 54 41
19 55 47
19 56 37
19 57 115
19 58 251
19 59 5
19 60 161
19 61 39
19 62 119
19 63 255
19 64 104
19 65 23
19 66 229
19 67 85
19 68 50
19 69 191
19 70 255
19 71 149
19 72 166
19 73 126
19 74 164
19 75 164
19 76 87
19 77 125
19 78 237
19 79 116
19 80 47
19 81 94
19 82 143
19 83 262
19 84 161
19 85 29
19 86 192
19 87 208
19 88 4
19 89 47
19 90 261
20 21 197
20 22 180
20 23 107
20 24 50
20 25 43
20 26 146
20 27 117
20 28 181
20 29 253
20 30 74
20 31 64
20 32 92
20 33 205
20 34 31
20 35 18
20 36 140
20 37 33
20 38 64
20 39 193
20 40 152
20 41 2
20 42 18
20 43 221
20 44 94
20 45 117
20 46 211
20 47 20
20 48 237
20 49 18
20 50 261
20 51 174
20 52 165
20 53 195
20 54 230
20 55 193
20 56 85
20 57 160
20 58 99
20 59 35
20 60 92
20 61 40
20 62 172
20 63 34
20 64 56
20 65 239
20 66 183
20 67 194
20 68 24
20 69 81
20 70 204
20 71 60
20 72 116
20 73 99
20 74 114
20 75 93
20 76 38
20 77 18
20 78 61
20 79 165
20 80 260
20 81 141
20 82 233
20 83 111
20 84 194
20 85 159
20 86 204
20 87 211
20 88 19
20 89 65
20 90 172
21 22 181
21 23 93
21 24 46
21 25 266
21 26 239
21 27 45
21 28 72
21 29 127
21 30 199
21 31 84
21 32 188
21 33 186
21 34 116
21 35 23
21 36 130
21 37 262
21 38 171
21 39 8
21 40 147
21 41 58
21 42 214
21 43 268
21 44 130
21 45 72
21 46 215
21 47 139
21 48 74
21 49 154
21 50 10
21 51 25
21 52 266
21 53 150
21 54 141
21 55 113
21 56 224
21 57 217
21 58 254
21 59 180
21 60 256
21 61 167
21 62 169
21 63 156
21 64 4
21 65 64
21 66 25
21 67 94
21 68 130
21 69 68
21 70 137
21 71 86
21 72 51
21 73 125
21 74 252
21 75 229
21 76 112
21 77 47
21 78 77
21 79 233
21 80 96
21 81 91
21 82 82
21 83 210
21 84 233
21 85 88
21 86 80
21 87 28
21 88 24
21 89 61
21 90 235
22 23 269
22 24 65
22 25 29
22 26 98
22 27 227
22 28 269
22 29 233
22 30 1
22 31 224
22 32 174
22 33 214
22 34 232
22 35 172
22 36 142
22 37 222
22 38 16
22 39 97
22 40 29
22 41 229
22 42 231
22 43 122
22 44 88
22 45 225
22 46 50
22 47 180
22 48 234
22 49 155
22 50 208
22 51 208
22 52 260
22 53 29
22 54 109
22 55 146
22 56 250
22 57 91
22 58 20
22 59 30
22 60 100
22 61 50
22 62 146
22 63 115
22 64 134
22 65 90
22 66 68
22 67 250
22 68 203
22 69 175
22 70 209
22 71 223
22 72 171
22 73 131
22 74 75
22 75 228
22 76 152
22 77 84
22 78 85
22 79 222
22 80 217
22 81 143
22 82 259
22 83 80
22 84 41
22 85 92
22 86 111
22 87 48
22 88 81
22 89 208
22 90 7
23 24 207
23 25 241
23 26 237
23 27 124
23 28 257
23 29 186
23 30 182
23 31 240
23 32 199
23 33 6
23 34 6
23 35 70
23 36 119
23 37 45
23 38 44
23 39 139
23 40 29
23 41 147
23 42 269
23 43 81
23 44 86
23 45 187
23 46 202
23 47 75
23 48 172
23 49 103
23 50 230
23 51 184
23 52 160
23 53 30
23 54 139
23 55 235
23 56 233
23 57 227
23 58 168
23 59 95
23 60 97
23 61 8
23 62 47
23 63 232
23 64 35
23 65 223
23 66 233
23 67 44
23 68 58
23 69 141
23 70 25
23 71 77
23 72 58
23 73 31
23 74 123
23 75 156
23 76 118
23 77 190
23 78 204
23 79 22
23 80 241
23 81 134
23 82 80
23 83 2
23 84 49
23 85 108
23 86 156
23 87 27
23 88 39
23 89 131
23 90 65
24 25 214
24 26 105
24 27 209
24 28 54
24 29 49
24 30 149
24 31 126
24 32 204
24 33 187
24 34 222
24 35 0
24 36 72
24 37 258
24 38 37
24 39 112
24 40 26
24 41 38
24 42 212
24 43 120
24 44 195
24 45 80
24 46 121
24 47 71
24 48 95
24 49 188
24 50 2
24 51 105
24 52 101
24 53 246
24 54 172
24 55 100
24 56 166
24 57 53
24 58 128
24 59 52
24 60 26
24 61 7
24 62 94
24 63 84
24 64 146
24 65 125
24 66 246
24 67 234
24 68 48
24 69 253
24 70 92
24 71 167
24 72 238
24 73 265
24 74 34
24 75 176
24 76 246
24 77 204
24 78 192
24 79 253
24 80 178
24 81 184
24 82 251
24 83 198
24 84 25
24 85 237
24 86 147
24 87 125
24 88 146
24 89 40
24 90 108
25 26 17
25 27 110
25 28 194
25 29 181
25 30 262
25 31 228
25 32 34
25 33 212
25 34 167
25 35 187
25 36 90
25 37 226
25 38 46
25 39 254
25 40 232
25 41 39
25 42 181
25 43 46
25 44 174
25 45 49
25 46 3
25 47 158
25 48 142
25 49 250
25 50 104
25 51 52
25 52 155
25 53 15
25 54 253
25 55 103
25 56 264
25 57 235
25 58 168
25 59 68
25 60 216
25 61 225
25 62 112
25 63 121
25 64 158
25 65 149
25 66 176
25 67 5
25 68 198
25 69 204
25 70 150
25 71 264
25 72 46
25 73 27
25 74 139
25 75 228
25 76 185
25 77 269
25 78 1
25 79 71
25 80 222
25 81 19
25 82 196
25 83 235
25 84 252
25 85 218
25 86 193
25 87 212
25 88 222
25 89 254
25 90 235
26 27 146
26 28 87
26 29 266
26 30 113
26 31 194
26 32 129
26 33 40
26 34 133
26 35 93
26 36 0
26 37 169
26 38 233
26 39 245
26 40 53
26 41 0
26 42 3
26 43 70
26 44 190
26 45 177
26 46 86
26 47 66
26 48 100
26 49 222
26 50 152
26 51 265
26 52 127
26 53 15
26 54 245
26 55 265
26 56 201
26 57 234
26 58 27
26 59 34
26 60 201
26 61 250
26 62 84
26 63 140
26 64 108
26 65 209
26 66 1
26 67 115
26 68 112
26 69 162
26 70 75
26 71 255
26 72 232
26 73 75
26 74 208
26 75 178
26 76 211
26 77 244
26 78 263
26 79 202
26 80 198
26 81 101
26 82 141
26 83 91
26 84 262
26 85 62
26 86 221
26 87 238
26 88 254
26 89 53
26 90 252
27 28 198
27 29 135
27 30 50
27 31 11
27 32 117
27 33 192
27 34 216
27 35 31
27 36 85
27 37 72
27 38 138
27 39 17
27 40 15
27 41 236
27 42 129
27 43 257
27 44 245
27 45 177
27 46 52
27 47 63
27 48 198
27 49 111
27 50 169
27 51 75
27 52 44
27 53 177
27 54 187
27 55 14
27 56 19
27 57 105
27 58 196
27 59 13
27 60 159
27 61 32
27 62 145
27 63 147
27 64 38
27 65 262
27 66 96
27 67 228
27 68 57
27 69 150
27 70 155
27 71 178
27 72 99
27 73 178
27 74 114
27 75 68
27 76 159
27 77 232
27 78 28
27 79 44
27 80 151
27 81 219
27 82 76
27 83 69
27 84 247
27 85 73
27 86 151
27 87 108
27 88 58
27 89 4
27 90 202
28 29 72
28 30 178
28 31 213
28 32 164
28 33 250
28 34 216
28 35 52
28 36 151
28 37 11
28 38 136
28 39 234
28 40 201
28 41 7
28 42 159
28 43 99
28 44 22
28 45 180
28 46 87
28 47 165
28 48 41
28 49 45
28 50 76
28 51 175
28 52 219
28 53 189
28 54 218
28 55 57
28 56 265
28 57 253
28 58 109
28 59 6
28 60 187
28 61 29
28 62 20
28 63 18
28 64 250
28 65 46
28 66 25
28 67 213
28 68 156
28 69 242
28 70 96
28 71 14
28 72 26
28 73 117
28 74 168
28 75 259
28 76 258
28 77 86
28 78 61
28 79 133
28 80 45
28 81 16
28 82 96
28 83 110
28 84 121
28 85 19
28 86 135
28 87 106
28 88 117
28 89 180
28 90 265
29 30 62
29 31 95
29 32 232
29 33 176
29 34 151
29 35 151
29 36 238
29 37 161
29 38 144
29 39 86
29 40 73
29 41 80
29 42 67
29 43 149
29 44 93
29 45 83
29 46 187
29 47 146
29 48 88
29 49 251
29 50 138
29 51 77
29 52 40
29 53 76
29 54 60
29 55 212
29 56 46
29 57 181
29 58 130
29 59 162
29 60 252
29 61 112
29 62 190
29 63 255
29 64 51
29 65 253
29 66 211
29 67 192
29 68 89
29 69 152
29 70 24
29 71 33
29 72 61
29 73 224
29 74 25
29 75 28
29 76 213
29 77 246
29 78 16
29 79 122
29 80 105
29 81 212
29 82 257
29 83 210
29 84 220
29 85 46
29 86 12
29 87 128
29 88 42
29 89 183
29 90 20
30 31 67
30 32 128
30 33 204
30 34 64
30 35 144
30 36 122
30 37 216
30 38 141
30 39 104
30 40 172
30 41 203
30 42 34
30 43 254
30 44 57
30 45 224
30 46 198
30 47 162
30 48 192
30 49 113
30 50 42
30 51 103
30 52 224
30 53 167
30 54 234
30 55 166
30 56 258
30 57 28
30 58 232
30 59 105
30 60 100
30 61 183
30 62 54
30 63 59
30 64 166
30 65 29
30 66 26
30 67 202
30 68 41
30 69 61
30 70 163
30 71 137
30 72 124
30 73 137
30 74 80
30 75 210
30 76 45
30 77 120
30 78 225
30 79 21
30 80 7
30 81 45
30 82 98
30 83 202
30 84 64
30 85 27
30 86 143
30 87 171
30 88 217
30 89 156
30 90 3
31 32 235
31 33 77
31 34 101
31 35 242
31 36 166
31 37 119
31 38 192
31 39 84
31 40 170
31 41 44
31 42 148
31 43 75
31 44 28
31 45 174
31 46 109
31 47 21
31 48 103
31 49 41
31 50 125
31 51 57
31 52 199
31 53 170
31 54 251
31 55 83
31 56 169
31 57 195
31 58 148
31 59 236
31 60 139
31 61 227
31 62 265
31 63 85
31 64 248
31 65 246
31 66 164
31 67 248
31 68 36
31 69 146
31 70 142
31 71 44
31 72 246
31 73 195
31 74 198
31 75 165
31 76 240
31 77 110
31 78 94
31 79 52
31 80 89
31 81 81
31 82 158
31 83 160
31 84 89
31 85 232
31 86 78
31 87 94
31 88 108
31 89 11
31 90 236
32 33 136
32 34 253
32 35 72
32 36 17
32 37 256
32 38 47
32 39 39
32 40 145
32 41 129
32 42 126
32 43 117
32 44 178
32 45 114
32 46 246
32 47 27
32 48 75
32 49 132
32 50 228
32 51 55
32 52 68
32 53 13
32 54 75
32 55 92
32 56 34
32 57 88
32 58 218
32 59 13
32 60 223
32 61 93
32 62 242
32 63 67
32 64 47
32 65 170
32 66 9
32 67 24
32 68 188
32 69 93
32 70 240
32 71 263
32 72 77
32 73 253
32 74 167
32 75 68
32 76 111
32 77 264
32 78 243
32 79 119
32 80 116
32 81 167
32 82 113
32 83 80
32 84 197
32 85 7
32 86 80
32 87 260
32 88 32
32 89 202
32 90 142
33 34 134
33 35 255
33 36 114
33 37 256
33 38 5
33 39 255
33 40 183
33 41 52
33 42 15
33 43 132
33 44 147
33 45 23
33 46 265
33 47 104
33 48 247
33 49 17
33 50 208
33 51 142
33 52 80
33 53 235
33 54 58
33 55 1
33 56 204
33 57 263
33 58 98
33 59 136
33 60 260
33 61 265
33 62 125
33 63 252
33 64 23
33 65 30
33 66 67
33 67 104
33 68 236
33 69 179
33 70 68
33 71 234
33 72 132
33 73 24
33 74 267
33 75 219
33 76 74
33 77 109
33 78 110
33 79 54
33 80 17
33 81 180
33 82 190
33 83 100
33 84 210
33 85 238
33 86 117
33 87 14
33 88 84
33 89 175
33 90 132
34 35 19
34 36 142
34 37 88
34 38 35
34 39 204
34 40 100
34 41 2
34 42 260
34 43 119
34 44 72
34 45 62
34 46 123
34 47 177
34 48 221
34 49 223
34 50 126
34 51 223
34 52 71
34 53 8
34 54 189
34 55 73
34 56 60
34 57 206
34 58 251
34 59 46
34 60 98
34 61 184
34 62 132
34 63 15
34 64 196
34 65 210
34 66 49
34 67 204
34 68 125
34 69 58
34 70 222
34 71 167
34 72 131
34 73 71
34 74 167
34 75 29
34 76 139
34 77 69
34 78 63
34 79 254
34 80 133
34 81 47
34 82 176
34 83 80
34 84 231
34 85 145
34 86 23
34 87 126
34 88 85
34 89 210
34 90 80
35 36 243
35 37 118
35 38 81
35 39 202
35 40 260
35 41 79
35 42 15
35 43 89
35 44 218
35 45 154
35 46 45
35 47 46
35 48 157
35 49 230
35 50 140
35 51 56
35 52 109
35 53 145
35 54 22
35 55 7
35 56 172
35 57 81
35 58 75
35 59 112
35 60 234
35 61 35
35 62 16
35 63 221
35 64 211
35 65 78
35 66 168
35 67 267
35 68 1
35 69 118
35 70 44
35 71 166
35 72 85
35 73 124
35 74 108
35 75 143
35 76 53
35 77 176
35 78 106
35 79 149
35 80 182
35 81 0
35 82 89
35 83 12
35 84 17
35 85 174
35 86 230
35 87 217
35 88 186
35 89 70
35 90 192
36 37 112
36 38 154
36 39 210
36 40 66
36 41 192
36 42 26
36 43 120
36 44 218
36 45 145
36 46 151
36 47 154
36 48 265
36 49 24
36 50 162
36 51 198
36 52 71
36 53 152
36 54 80
36 55 147
36 56 236
36 57 249
36 58 235
36 59 173
36 60 119
36 61 266
36 62 14
36 63 85
36 64 81
36 65 269
36 66 256
36 67 62
36 68 77
36 69 193
36 70 93
36 71 221
36 72 163
36 73 175
36 74 108
36 75 252
36 76 54
36 77 51
36 78 172
36 79 249
36 80 173
36 81 113
36 82 61
36 83 161
36 84 184
36 85 144
36 86 141
36 87 9
36 88 126
36 89 8
36 90 77
37 38 210
37 39 40
37 40 90
37 41 5
37 42 106
37 43 135
37 44 88
37 45 245
37 46 4
37 47 105
37 48 104
37 49 27
37 50 169
37 51 143
37 52 157
37 53 266
37 54 26
37 55 150
37 56 34
37 57 166
37 58 176
37 59 153
37 60 168
37 61 53
37 62 139
37 63 212
37 64 254
37 65 198
37 66 48
37 67 28
37 68 209
37 69 224
37 70 38
37 71 195
37 72 16
37 73 186
37 74 44
37 75 12
37 76 179
37 77 158
37 78 76
37 79 142
37 80 91
37 81 245
37 82 125
37 83 141
37 84 108
37 85 111
37 86 35
37 87 133
37 88 126
37 89 35
37 90 9
38 39 199
38 40 8
38 41 146
38 42 118
38 43 230
38 44 208
38 45 71
38 46 77
38 47 49
38 48 133
38 49 248
38 50 130
38 51 163
38 52 221
38 53 124
38 54 172
38 55 188
38 56 7
38 57 122
38 58 88
38 59 148
38 60 35
38 61 23
38 62 229
38 63 176
38 64 264
38 65 124
38 66 57
38 67 18
38 68 232
38 69 122
38 70 172
38 71 11
38 72 232
38 73 115
38 74 175
38 75 142
38 76 26
38 77 168
38 78 153
38 79 253
38 80 130
38 81 215
38 82 111
38 83 141
38 84 159
38 85 195
38 86 31
38 87 87
38 88 36
38 89 45
38 90 254
39 40 136
39 41 6
39 42 123
39 43 168
39 44 126
39 45 41
39 46 210
39 47 202
39 48 181
39 49 118
39 50 31
39 51 138
39 52 99
39 53 194
39 54 201
39 55 225
39 56 114
39 57 215
39 58 240
39 59 165
39 60 105
39 61 51
39 62 46
39 63 131
39 64 36
39 65 33
39 66 116
39 67 33
39 68 252
39 69 261
39 70 198
39 71 64
39 72 168
39 73 98
39 74 250
39 75 164
39 76 265
39 77 217
39 78 250
39 79 233
39 80 141
39 81 213
39 82 186
39 83 193
39 84 95
39 85 64
39 86 66
39 87 125
39 88 268
39 89 125
39 90 77
40 41 233
40 42 108
40 43 152
40 44 220
40 45 17
40 46 30
40 47 68
40 48 140
40 49 96
40 50 172
40 51 71
40 52 19
40 53 233
40 54 159
40 55 224
40 56 100
40 57 50
40 58 135
40 59 9
40 60 124
40 61 149
40 62 196
40 63 252
40 64 206
40 65 42
40 66 74
40 67 224
40 68 122
40 69 229
40 70 36
40 71 253
40 72 81
40 73 120
40 74 184
40 75 201
40 76 99
40 77 38
40 78 155
40 79 73
40 80 167
40 81 198
40 82 111
40 83 121
40 84 171
40 85 5
40 86 253
40 87 118
40 88 207
40 89 85
40 90 175
41 42 7
41 43 255
41 44 32
41 45 258
41 46 135
41 47 187
41 48 9
41 49 247
41 50 96
41 51 33
41 52 261
41 53 256
41 54 25
41 55 18
41 56 205
41 57 216
41 58 234
41 59 18
41 60 82
41 61 97
41 62 111
41 63 123
41 64 264
41 65 81
41 66 183
41 67 163
41 68 261
41 69 148
41 70 56
41 71 256
41 72 83
41 73 119
41 74 113
41 75 212
41 76 172
41 77 119
41 78 113
41 79 203
41 80 145
41 81 177
41 82 37
41 83 137
41 84 134
41 85 78
41 86 31
41 87 108
41 88 201
41 89 105
41 90 56
42 43 84
42 44 251
42 45 12
42 46 209
42 47 215
42 48 114
42 49 269
42 50 112
42 51 243
42 52 92
42 53 267
42 54 68
42 55 5
42 56 52
42 57 56
42 58 172
42 59 72
42 60 48
42 61 211
42 62 82
42 63 165
42 64 35
42 65 124
42 66 254
42 67 44
42 68 163
42 69 57
42 70 262
42 71 267
42 72 116
42 73 7
42 74 63
42 75 46
42 76 154
42 77 202
42 78 263
42 79 203
42 80 3
42 81 228
42 82 235
42 83 90
42 84 78
42 85 101
42 86 0
42 87 225
42 88 264
42 89 164
42 90 262
43 44 243
43 45 81
43 46 24
43 47 82
43 48 202
43 49 234
43 50 227
43 51 53
43 52 71
43 53 169
43 54 86
43 55 35
43 56 203
43 57 210
43 58 148
43 59 261
43 60 201
43 61 74
43 62 32
43 63 88
43 64 94
43 65 248
43 66 113
43 67 208
43 68 90
43 69 258
43 70 229
43 71 145
43 72 252
43 73 148
43 74 100
43 75 195
43 76 99
43 77 150
43 78 266
43 79 55
43 80 220
43 81 202
43 82 202
43 83 60
43 84 147
43 85 148
43 86 128
43 87 211
43 88 180
43 89 38
43 90 234
44 45 210
44 46 14
44 47 88
44 48 75
44 49 179
44 50 183
44 51 191
44 52 264
44 53 96
44 54 33
44 55 191
44 56 86
44 57 127
44 58 102
44 59 50
44 60 211
44 61 7
44 62 57
44 63 246
44 64 179
44 65 210
44 66 230
44 67 244
44 68 94
44 69 194
44 70 191
44 71 76
44 72 45
44 73 160
44 74 110
44 75 64
44 76 154
44 77 91
44 78 52
44 79 122
44 80 189
44 81 163
44 82 118
44 83 104
44 84 195
44 85 160
44 86 59
44 87 25
44 88 46
44 89 26
44 90 232
45 46 158
45 47 165
45 48 95
45 49 152
45 50 114
45 51 186
45 52 85
45 53 204
45 54 136
45 55 99
45 56 140
45 57 169
45 58 226
45 59 108
45 60 230
45 61 90
45 62 244
45 63 266
45 64 23
45 65 111
45 66 109
45 67 100
45 68 35
45 69 84
45 70 269
45 71 227
45 72 41
45 73 78
45 74 22
45 75 82
45 76 25
45 77 179
45 78 230
45 79 240
45 80 113
45 81 27
45 82 8
45 83 114
45 84 161
45 85 230
45 86 47
45 87 217
45 88 70
45 89 162
45 90 137
46 47 153
46 48 146
46 49 150
46 50 31
46 51 136
46 52 104
46 53 208
46 54 227
46 55 135
46 56 146
46 57 104
46 58 170
46 59 178
46 60 233
46 61 167
46 62 40
46 63 66
46 64 116
46 65 102
46 66 200
46 67 123
46 68 20
46 69 79
46 70 205
46 71 225
46 72 171
46 73 80
46 74 7
46 75 54
46 76 81
46 77 64
46 78 208
46 79 45
46 80 195
46 81 164
46 82 91
46 83 132
46 84 202
46 85 234
46 86 136
46 87 160
46 88 223
46 89 147
46 90 49
47 48 176
47 49 15
47 50 24
47 51 168
47 52 236
47 53 179
47 54 223
47 55 83
47 56 49
47 57 189
47 58 158
47 59 46
47 60 260
47 61 203
47 62 203
47 63 168
47 64 142
47 65 160
47 66 209
47 67 195
47 68 76
47 69 208
47 70 41
47 71 255
47 72 91
47 73 111
47 74 268
47 75 250
47 76 85
47 77 189
47 78 99
47 79 101
47 80 22
47 81 120
47 82 220
47 83 149
47 84 183
47 85 188
47 86 42
47 87 64
47 88 244
47 89 228
47 90 237
48 49 234
48 50 138
48 51 266
48 52 226
48 53 123
48 54 1
48 55 195
48 56 73
48 57 163
48 58 258
48 59 248
48 60 262
48 61 268
48 62 52
48 63 187
48 64 220
48 65 173
48 66 78
48 67 247
48 68 261
48 69 210
48 70 10
48 71 199
48 72 222
48 73 245
48 74 171
48 75 158
48 76 9
48 77 138
48 78 25
48 79 268
48 80 113
48 81 233
48 82 216
48 83 257
48 84 267
48 85 70
48 86 120
48 87 226
48 88 5
48 89 78
48 90 126
49 50 148
49 51 83
49 52 131
49 53 195
49 54 253
49 55 142
49 56 168
49 57 71
49 58 86
49 59 105
49 60 214
49 61 137
49 62 13
49 63 106
49 64 61
49 65 244
49 66 76
49 67 133
49 68 128
49 69 16
49 70 24
49 71 151
49 72 199
49 73 132
49 74 82
49 75 149
49 76 59
49 77 248
49 78 36
49 79 129
49 80 147
49 81 13
49 82 77
49 83 157
49 84 88
49 85 217
49 86 121
49 87 92
49 88 132
49 89 269
49 90 78
50 51 80
50 52 217
50 53 85
50 54 171
50 55 41
50 56 255
50 57 95
50 58 159
50 59 27
50 60 211
50 61 114
50 62 64
50 63 105
50 64 23
50 65 147
50 66 125
50 67 174
50 68 157
50 69 234
50 70 233
50 71 153
50 72 125
50 73 211
50 74 157
50 75 103
50 76 220
50 77 188
50 78 58
50 79 151
50 80 160
50 81 126
50 82 199
50 83 131
50 84 256
50 85 154
50 86 55
50 87 218
50 88 169
50 89 12
50 90 155
51 52 44
51 53 188
51 54 39
51 55 228
51 56 63
51 57 111
51 58 61
51 59 195
51 60 251
51 61 46
51 62 242
51 63 158
51 64 184
51 65 44
51 66 125
51 67 246
51 68 263
51 69 172
51 70 173
51 71 224
51 72 7
51 73 62
51 74 228
51 75 166
51 76 151
51 77 149
51 78 31
51 79 26
51 80 63
51 81 162
51 82 80
51 83 127
51 84 141
51 85 171
51 86 246
51 87 206
51 88 257
51 89 266
51 90 136
52 53 14
52 54 259
52 55 142
52 56 67
52 57 191
52 58 132
52 59 130
52 60 99
52 61 92
52 62 116
52 63 218
52 64 192
52 65 75
52 66 91
52 67 113
52 68 32
52 69 142
52 70 53
52 71 242
52 72 252
52 73 215
52 74 59
52 75 1
52 76 12
52 77 110
52 78 71
52 79 56
52 80 8
52 81 45
52 82 52
52 83 197
52 84 85
52 85 243
52 86 152
52 87 261
52 88 267
52 89 103
52 90 19
53 54 194
53 55 232
53 56 6
53 57 207
53 58 210
53 59 235
53 60 75
53 61 170
53 62 105
53 63 13
53 64 177
53 65 250
53 66 100
53 67 136
53 68 106
53 69 83
53 70 34
53 71 238
53 72 227
53 73 58
53 74 73
53 75 265
53 76 152
53 77 227
53 78 192
53 79 117
53 80 82
53 81 89
53 82 202
53 83 113
53 84 138
53 85 254
53 86 81
53 87 53
53 88 73
53 89 70
53 90 43
54 55 245
54 56 54
54 57 223
54 58 104
54 59 263
54 60 159
54 61 33
54 62 65
54 63 176
54 64 102
54 65 59
54 66 193
54 67 137
54 68 210
54 69 159
54 70 92
54 71 13
54 72 211
54 73 219
54 74 166
54 75 77
54 76 187
54 77 13
54 78 269
54 79 206
54 80 12
54 81 162
54 82 168
54 83 251
54 84 66
54 85 224
54 86 263
54 87 129
54 88 66
54 89 29
54 90 212
55 56 10
55 57 88
55 58 249
55 59 193
55 60 139
55 61 18
55 62 243
55 63 207
55 64 134
55 65 234
55 66 74
55 67 69
55 68 8
55 69 233
55 70 20
55 71 227
55 72 243
55 73 124
55 74 233
55 75 242
55 76 267
55 77 50
55 78 170
55 79 129
55 80 128
55 81 126
55 82 154
55 83 155
55 84 211
55 85 252
55 86 79
55 87 237
55 88 143
55 89 2
55 90 229
56 57 203
56 58 27
56 59 2
56 60 118
56 61 142
56 62 232
56 63 148
56 64 50
56 65 105
56 66 139
56 67 100
56 68 172
56 69 46
56 70 202
56 71 123
56 72 41
56 73 73
56 74 189
56 75 49
56 76 247
56 77 208
56 78 193
56 79 206
56 80 258
56 81 195
56 82 213
56 83 214
56 84 181
56 85 79
56 86 195
56 87 148
56 88 119
56 89 66
56 90 84
57 58 132
57 59 250
57 60 236
57 61 91
57 62 261
57 63 123
57 64 87
57 65 53
57 66 234
57 67 168
57 68 44
57 69 100
57 70 120
57 71 41
57 72 257
57 73 250
57 74 93
57 75 80
57 76 207
57 77 177
57 78 159
57 79 127
57 80 87
57 81 14
57 82 56
57 83 195
57 84 23
57 85 93
57 86 9
57 87 228
57 88 126
57 89 60
57 90 40
58 59 125
58 60 142
58 61 159
58 62 252
58 63 173
58 64 115
58 65 241
58 66 148
58 67 148
58 68 55
58 69 90
58 70 30
58 71 152
58 72 214
58 73 171
58 74 239
58 75 105
58 76 179
58 77 87
58 78 36
58 79 113
58 80 144
58 81 267
58 82 136
58 83 101
58 84 114
58 85 58
58 86 114
58 87 34
58 88 32
58 89 40
58 90 89
59 60 203
59 61 192
59 62 232
59 63 79
59 64 57
59 65 155
59 66 216
59 67 267
59 68 217
59 69 17
59 70 264
59 71 199
59 72 235
59 73 250
59 74 89
59 75 50
59 76 29
59 77 54
59 78 102
59 79 210
59 80 33
59 81 103
59 82 248
59 83 46
59 84 199
59 85 241
59 86 214
59 87 54
59 88 70
59 89 150
59 90 269
60 61 188
60 62 193
60 63 235
60 64 46
60 65 137
60 66 41
60 67 123
60 68 164
60 69 45
60 70 258
60 71 13
60 72 249
60 73 258
60 74 169
60 75 155
60 76 72
60 77 3
60 78 119
60 79 197
60 80 210
60 81 109
60 82 202
60 83 156
60 84 88
60 85 104
60 86 24
60 87 147
60 88 161
60 89 177
60 90 186
61 62 116
61 63 104
61 64 8
61 65 254
61 66 239
61 67 21
61 68 163
61 69 109
61 70 122
61 71 42
61 72 252
61 73 258
61 74 186
61 75 160
61 76 218
61 77 9
61 78 221
61 79 221
61 80 224
61 81 57
61 82 60
61 83 182
61 84 66
61 85 212
61 86 56
61 87 41
61 88 92
61 89 51
61 90 233
62 63 165
62 64 234
62 65 163
62 66 115
62 67 189
62 68 163
62 69 182
62 70 74
62 71 159
62 72 116
62 73 68
62 74 229
62 75 65
62 76 197
62 77 38
62 78 52
62 79 2
62 80 160
62 81 12
62 82 24
62 83 18
62 84 228
62 85 192
62 86 55
62 87 12
62 88 51
62 89 202
62 90 96
63 64 170
63 65 74
63 66 29
63 67 269
63 68 18
63 69 84
63 70 6
63 71 36
63 72 215
63 73 206
63 74 206
63 75 87
63 76 70
63 77 22
63 78 91
63 79 115
63 80 257
63 81 138
63 82 196
63 83 244
63 84 91
63 85 134
63 86 262
63 87 85
63 88 172
63 89 47
63 90 181
64 65 97
64 66 34
64 67 107
64 68 55
64 69 221
64 70 253
64 71 253
64 72 255
64 73 156
64 74 173
64 75 85
64 76 14
64 77 215
64 78 213
64 79 223
64 80 236
64 81 229
64 82 170
64 83 174
64 84 147
64 85 126
64 86 196
64 87 32
64 88 184
64 89 22
64 90 140
65 66 5
65 67 100
65 68 140
65 69 53
65 70 3
65 71 11
65 72 196
65 73 189
65 74 95
65 75 131
65 76 135
65 77 186
65 78 207
65 79 236
65 80 153
65 81 199
65 82 161
65 83 115
65 84 240
65 85 43
65 86 111
65 87 78
65 88 66
65 89 181
65 90 183
66 67 229
66 68 71
66 69 219
66 70 4
66 71 126
66 72 74
66 73 50
66 74 78
66 75 244
66 76 191
66 77 96
66 78 20
66 79 107
66 80 231
66 81 230
66 82 77
66 83 246
66 84 190
66 85 169
66 86 34
66 87 185
66 88 180
66 89 190
66 90 56
67 68 141
67 69 238
67 70 54
67 71 38
67 72 173
67 73 244
67 74 252
67 75 68
67 76 20
67 77 2
67 78 258
67 79 269
67 80 67
67 81 192
67 82 175
67 83 250
67 84 172
67 85 188
67 86 147
67 87 6
67 88 25
67 89 65
67 90 207
68 69 128
68 70 184
68 71 53
68 72 20
68 73 21
68 74 167
68 75 262
68 76 33
68 77 227
68 78 188
68 79 55
68 80 44
68 81 86
68 82 151
68 83 131
68 84 38
68 85 48
68 86 5
68 87 73
68 88 154
68 89 242
68 90 208
69 70 251
69 71 67
69 72 170
69 73 106
69 74 73
69 75 7
69 76 49
69 77 56
69 78 177
69 79 134
69 80 222
69 81 146
69 82 223
69 83 9
69 84 194
69 85 93
69 86 44
69 87 221
69 88 144
69 89 125
69 90 109
70 71 5
70 72 250
70 73 178
70 74 201
70 75 143
70 76 151
70 77 244
70 78 43
70 79 192
70 80 45
70 81 175
70 82 17
70 83 83
70 84 220
70 85 23
70 86 72
70 87 200
70 88 148
70 89 190
70 90 57
71 72 181
71 73 202
71 74 207
71 75 140
71 76 141
71 77 265
71 78 243
71 79 151
71 80 235
71 81 124
71 82 183
71 83 155
71 84 192
71 85 44
71 86 16
71 87 175
71 88 72
71 89 163
71 90 205
72 73 152
72 74 19
72 75 219
72 76 190
72 77 169
72 78 144
72 79 251
72 80 181
72 81 238
72 82 251
72 83 97
72 84 19
72 85 86
72 86 107
72 87 98
72 88 34
72 89 44
72 90 194
73 74 19
73 75 259
73 76 207
73 77 172
73 78 223
73 79 116
73 80 188
73 81 46
73 82 232
73 83 24
73 84 220
73 85 235
73 86 1
73 87 145
73 88 73
73 89 83
73 90 253
74 75 172
74 76 236
74 77 239
74 78 222
74 79 141
74 80 131
74 81 15
74 82 52
74 83 66
74 84 123
74 85 130
74 86 17
74 87 36
74 88 192
74 89 189
74 90 215
75 76 184
75 77 210
75 78 195
75 79 203
75 80 199
75 81 237
75 82 82
75 83 67
75 84 103
75 85 247
75 86 158
75 87 248
75 88 140
75 89 114
75 90 106
76 77 7
76 78 88
76 79 229
76 80 28
76 81 100
76 82 6
76 83 33
76 84 138
76 85 245
76 86 203
76 87 51
76 88 153
76 89 60
76 90 189
77 78 70
77 79 147
77 80 210
77 81 46
77 82 149
77 83 159
77 84 47
77 85 237
77 86 117
77 87 239
77 88 256
77 89 8
77 90 143
78 79 104
78 80 188
78 81 30
78 82 138
78 83 206
78 84 235
78 85 177
78 86 256
78 87 56
78 88 262
78 89 183
78 90 240
79 80 91
79 81 238
79 82 92
79 83 238
79 84 92
79 85 86
79 86 109
79 87 218
79 88 79
79 89 230
79 90 131
80 81 77
80 82 14
80 83 114
80 84 47
80 85 227
80 86 109
80 87 31
80 88 74
80 89 205
80 90 118
81 82 239
81 83 244
81 84 84
81 85 97
81 86 208
81 87 150
81 88 224
81 89 218
81 90 194
82 83 44
82 84 91
82 85 122
82 86 86
82 87 225
82 88 202
82 89 208
82 90 112
83 84 187
83 85 164
83 86 164
83 87 109
83 88 215
83 89 211
83 90 261
84 85 60
84 86 156
84 87 47
84 88 201
84 89 50
84 90 200
85 86 166
85 87 80
85 88 7
85 89 98
85 90 222
86 87 25
86 88 235
86 89 85
86 90 30
87 88 221
87 89 11
87 90 222
88 89 159
88 90 158
89 90 173
